10	5
0	5	2	4	1	5	3
1	2	10	9
2	1	9
3	2	10	9
4	2	10	9
5	1	7
6	1	8
7	2	9	6
8	0
9	1	11
10	1	11
11	0
0	0	0	0	0	0	0
1	4	3	3	2	5	2
2	2	1	0	1	3	4
3	2	5	2	1	0	0
4	3	1	0	2	0	1
5	5	2	1	0	0	1
6	5	0	0	4	3	3
7	2	3	3	1	1	3
8	3	1	3	1	0	2
9	7	0	3	5	1	1
10	9	3	3	3	3	0
11	0	0	0	0	0	0
7	7	9	6	7
